c pcminimize - minimizing a CNF with respect to propagation completeness by iterative removing of absorbed clauses.
c Petr Kucera, 2016-2021
c Version 2.7, revision 59, git hash 4910a71, date 2024-07-16 20:17:42 +0200
p cnf 434 755
251 -252 0
252 -253 0
103 -253 0
-207 -255 0
254 -255 0
255 -256 0
-103 -256 0
253 256 -257 0
195 -258 0
25 -258 0
259 -260 0
-25 -260 0
258 260 -261 0
196 -262 0
210 -262 0
257 -263 0
261 -263 0
262 -263 0
263 -265 0
264 -265 0
265 -266 0
245 -266 0
251 -267 0
103 -267 0
-207 -268 0
-103 -268 0
267 268 -269 0
210 -270 0
196 -270 0
271 -272 0
-196 -272 0
270 272 -273 0
195 -274 0
264 -274 0
274 -275 0
25 -275 0
163 -276 0
259 -276 0
276 -277 0
-25 -277 0
275 277 -278 0
269 -279 0
273 -279 0
278 -279 0
57 -279 0
279 -280 0
-245 -280 0
266 280 -281 0
281 -282 0
30 -283 0
220 -283 0
284 -285 0
-220 -285 0
283 285 -286 0
23 -287 0
-75 -287 0
117 -287 0
120 -287 0
134 -287 0
181 -287 0
-204 -287 0
288 -293 0
289 -293 0
290 -293 0
291 -293 0
292 -293 0
282 -294 0
286 -294 0
287 -294 0
293 -294 0
294 -295 0
250 -296 0
295 -297 0
296 -297 0
297 -298 0
298 -300 0
299 -300 0
300 -301 0
301 -302 0
302 -303 0
303 -305 0
305 -306 0
232 -307 0
306 -308 0
308 -309 0
309 -310 0
310 -311 0
191 -311 0
196 -312 0
210 -312 0
257 -313 0
261 -313 0
312 -313 0
313 -314 0
264 -314 0
314 -315 0
245 -315 0
212 -316 0
317 -318 0
-212 -318 0
316 318 -319 0
269 -320 0
273 -320 0
278 -320 0
319 -320 0
57 -320 0
320 -321 0
-245 -321 0
315 321 -322 0
23 -323 0
117 -323 0
120 -323 0
181 -323 0
-204 -323 0
291 -325 0
288 -325 0
289 -325 0
290 -325 0
324 -325 0
292 -325 0
322 -326 0
286 -326 0
323 -326 0
325 -326 0
326 -327 0
-75 -328 0
134 -328 0
250 -328 0
327 -329 0
328 -329 0
329 -330 0
330 -332 0
331 -332 0
332 -333 0
333 -335 0
334 -335 0
335 -336 0
336 -337 0
337 -338 0
338 -339 0
339 -340 0
340 -341 0
-191 -341 0
342 -344 0
18 -351 0
134 -353 0
352 -353 0
353 -354 0
250 -354 0
355 -356 0
204 -356 0
134 -357 0
-204 -357 0
356 357 -358 0
358 -359 0
-250 -359 0
354 359 -360 0
-75 -361 0
117 -361 0
-181 -361 0
361 -362 0
120 -362 0
-117 -364 0
363 -364 0
364 -365 0
75 -365 0
-117 -366 0
181 -366 0
367 -368 0
-181 -368 0
366 368 -369 0
369 -370 0
-75 -370 0
365 370 -371 0
371 -372 0
-120 -372 0
362 372 -373 0
-23 -374 0
-30 -374 0
-220 -374 0
360 -375 0
373 -375 0
374 -375 0
375 -376 0
149 -376 0
286 -377 0
134 -377 0
352 -377 0
377 -378 0
250 -378 0
30 -379 0
134 -379 0
379 -380 0
220 -380 0
284 -381 0
355 -381 0
381 -382 0
-220 -382 0
380 382 -383 0
383 -384 0
204 -384 0
286 -385 0
134 -385 0
385 -386 0
-204 -386 0
384 386 -387 0
387 -388 0
-250 -388 0
378 388 -389 0
361 -391 0
390 -391 0
391 -392 0
120 -392 0
-23 -393 0
-117 -393 0
393 -394 0
363 -394 0
394 -395 0
75 -395 0
393 -396 0
181 -396 0
390 -397 0
117 -397 0
-23 -398 0
-117 -398 0
397 398 -399 0
399 -400 0
-181 -400 0
396 400 -401 0
401 -402 0
-75 -402 0
395 402 -403 0
403 -404 0
-120 -404 0
392 404 -405 0
389 -406 0
405 -406 0
406 -407 0
-149 -407 0
376 407 -408 0
-3 -409 0
10 -409 0
14 -409 0
-20 -409 0
22 -409 0
-25 -409 0
-28 -409 0
31 -409 0
-32 -409 0
-42 -409 0
44 -409 0
50 -409 0
54 -409 0
69 -409 0
-71 -409 0
74 -409 0
78 -409 0
-80 -409 0
82 -409 0
-87 -409 0
100 -409 0
103 -409 0
104 -409 0
130 -409 0
-132 -409 0
145 -409 0
-150 -409 0
-152 -409 0
-154 -409 0
-155 -409 0
-161 -409 0
163 -409 0
164 -409 0
-172 -409 0
-174 -409 0
194 -409 0
-195 -409 0
-196 -409 0
207 -409 0
211 -409 0
-216 -409 0
-221 -409 0
-232 -409 0
-245 -409 0
410 -416 0
411 -416 0
412 -416 0
413 -416 0
291 -416 0
414 -416 0
415 -416 0
271 -416 0
408 -417 0
416 -417 0
419 -420 0
-18 -430 0
431 -432 0
-1 0
-2 0
4 0
-5 0
6 0
-8 0
-9 0
11 0
12 0
-13 0
15 0
17 0
19 0
-24 0
-27 0
-29 0
-33 0
-34 0
-35 0
36 0
37 0
-38 0
-39 0
40 0
-41 0
-43 0
-45 0
46 0
47 0
-48 0
49 0
-51 0
52 0
53 0
55 0
56 0
-58 0
-59 0
-63 0
-64 0
65 0
-66 0
-67 0
-68 0
-70 0
72 0
73 0
76 0
-77 0
-81 0
-83 0
84 0
85 0
-86 0
88 0
-89 0
-90 0
-91 0
-92 0
93 0
94 0
95 0
-96 0
97 0
98 0
-99 0
-101 0
102 0
105 0
-106 0
-107 0
108 0
109 0
-110 0
-111 0
-112 0
-114 0
-115 0
-116 0
118 0
-119 0
121 0
122 0
123 0
-124 0
-125 0
-126 0
-127 0
128 0
-131 0
-133 0
135 0
136 0
137 0
-138 0
139 0
-140 0
-141 0
142 0
-143 0
-144 0
-146 0
-147 0
148 0
151 0
153 0
-156 0
157 0
158 0
-159 0
-160 0
-162 0
165 0
-166 0
-167 0
-168 0
-169 0
170 0
-171 0
-173 0
175 0
-177 0
178 0
180 0
-182 0
-183 0
-184 0
-185 0
186 0
187 0
-188 0
189 0
-190 0
-192 0
193 0
197 0
-198 0
-200 0
-201 0
-202 0
203 0
205 0
206 0
208 0
209 0
-213 0
214 0
-215 0
217 0
218 0
-219 0
222 0
223 0
224 0
-225 0
-226 0
-227 0
-228 0
229 0
-230 0
-231 0
-233 0
-234 0
-235 0
236 0
-237 0
-238 0
-240 0
-241 0
242 0
243 0
244 0
246 0
247 0
248 0
249 0
199 429 0
-428 429 0
-7 428 0
-426 427 0
-425 426 0
-423 424 0
-422 424 0
21 421 0
-415 416 0
-26 415 0
60 414 0
239 413 0
-411 416 0
-417 418 0
-211 409 0
155 409 0
154 409 0
-145 409 0
174 409 0
-82 409 0
-78 409 0
161 409 0
-69 409 0
-50 409 0
42 409 0
32 409 0
28 409 0
-22 409 0
20 409 0
-14 409 0
-10 409 0
3 409 0
-408 417 0
-406 407 0
-405 406 0
-403 404 0
-402 403 0
-400 401 0
-399 400 0
-398 399 0
-396 401 0
-392 405 0
-409 417 0
-390 391 397 0
-388 389 0
-387 388 0
-385 386 0
-433 434 0
-383 384 0
-382 383 0
-413 416 0
-381 382 0
-380 383 0
-379 380 0
-378 389 0
-377 378 0
-375 376 0
-374 375 0
23 374 390 393 398 0
-372 373 0
-420 421 0
120 372 404 0
-371 372 0
-370 371 0
-369 370 0
-367 368 0
132 409 0
-366 369 0
-365 371 0
-364 365 0
216 409 0
-363 364 394 0
-362 373 0
250 359 388 0
-358 359 0
-357 358 0
134 355 0
-354 360 0
-73 432 0
-353 354 0
-348 349 0
7 348 0
-347 348 0
-176 410 0
-419 420 0
-21 346 0
150 409 0
-345 347 0
-343 344 0
-427 428 0
-342 344 0
-341 342 0
191 341 0
-340 341 0
-61 412 0
-339 340 0
-338 339 0
-336 337 0
-335 336 0
-334 335 0
-333 335 0
-337 338 0
-328 329 0
-327 329 0
-326 327 0
-323 326 0
-322 326 0
-320 321 0
-319 320 0
-317 318 0
-62 317 0
-391 392 0
-314 315 0
-313 314 0
181 361 363 368 400 0
-311 342 0
80 409 0
-310 311 0
-309 310 0
-308 309 0
-16 307 0
-304 305 337 0
-79 409 0
-303 305 0
-302 303 0
-301 302 0
-164 409 0
71 409 0
-300 301 0
212 318 0
-120 287 323 362 392 0
152 409 0
-368 369 0
-279 280 0
-117 287 323 361 367 397 0
-360 375 0
-361 362 391 0
-344 345 0
124 343 423 0
-204 352 356 384 0
-195 258 259 274 0
-373 375 0
75 287 328 361 370 402 0
-355 356 381 0
-287 294 0
-359 360 0
-393 394 396 0
-315 322 0
-74 409 0
-418 420 0
-421 422 0
-194 409 0
-404 405 0
-429 430 0
-149 376 0
-264 265 274 314 0
-397 399 0
-294 295 0
210 271 0
-281 282 0
-263 265 0
-285 286 0
-293 294 0
25 260 277 409 0
-252 253 0
-290 293 325 0
-207 251 409 0
-196 262 270 312 0
103 256 268 0
-256 257 0
-412 416 0
-25 258 275 0
-424 425 0
-416 417 0
-312 313 0
163 264 0
-329 330 0
-297 298 0
-251 252 267 0
-104 409 0
196 272 409 0
-318 319 0
-384 387 0
-346 347 0
195 259 409 0
-103 253 267 409 0
-324 325 0
-267 269 0
-245 266 315 0
207 251 255 268 0
-276 277 0
245 280 321 409 0
-258 261 0
-274 275 0
-331 332 0
-75 365 395 0
117 364 366 367 393 398 0
-260 261 0
-210 262 270 271 312 0
-199 350 0
16 409 0
-407 408 0
57 254 0
-273 279 320 0
-54 409 0
-255 256 0
-289 293 325 0
-272 273 0
-269 279 320 0
-113 411 0
-254 255 0
-268 269 0
-395 403 0
-389 406 0
-163 264 276 409 0
-266 281 0
-286 294 326 377 385 0
-275 278 0
-278 279 320 0
-305 306 0
-280 281 0
-376 408 0
-325 326 0
30 284 374 0
-352 353 377 0
-432 433 0
-220 283 380 0
220 285 374 382 0
-277 278 0
-265 266 0
-134 287 328 353 355 357 377 379 385 0
-292 293 325 0
-253 257 0
-259 260 276 0
-270 273 0
-23 287 323 390 0
-410 416 0
-283 286 0
-30 283 284 379 0
-299 300 0
-130 289 409 0
-181 287 323 363 366 396 0
-282 294 0
-98 346 409 0
-284 285 381 0
-356 358 0
179 291 0
-87 290 0
-100 409 0
-316 319 0
-401 402 0
204 287 323 352 357 386 0
129 324 0
-414 416 0
-298 300 0
-386 387 0
-44 288 409 0
44 288 0
-65 304 409 0
-288 293 325 0
130 289 0
-271 272 416 0
87 290 409 0
79 307 0
-172 292 0
-332 333 0
172 292 409 0
-295 297 0
-306 308 0
-350 351 0
-296 297 0
-257 263 313 0
-394 395 0
-321 322 0
-261 263 313 0
-262 263 0
-31 409 0
-179 291 0
-330 332 0
-250 296 328 354 378 0
221 409 0
-349 350 0
